1167.0 0
0 120 109 108 107 106 114 115 0
0 73 74 134 76 77 64 63 79 67 70 69 68 80 33 133 78 0
0 22 24 23 59 31 30 58 52 51 50 49 48 34 32 47 0
0 60 61 54 55 103 56 57 105 97 96 38 39 95 37 98 100 99 36 35 101 104 102 53 62 1 75 72 0
0 66 132 116 131 117 119 130 65 19 118 46 0
0 17 18 113 129 128 121 127 126 124 123 122 110 111 125 112 81 71 0
0 82 20 83 84 85 86 87 89 90 16 13 15 88 14 11 12 10 9 8 7 6 5 4 2 42 41 3 40 44 43 45 94 93 29 92 28 27 26 25 21 91 0